Optimize a model with 32 rows, 35 columns and 120 nonzeros
Variable types: 5 continuous, 30 integer (30 binary)
Coefficient statistics:
  Matrix range     [1e+00, 6e+00]
  Objective range  [6e+02, 1e+04]
  Bounds range     [1e+00, 1e+00]
  RHS range        [1e+00, 5e+00]
Found heuristic solution: objective 24860.000000
Presolve time: 0.00s
Presolved: 32 rows, 35 columns, 120 nonzeros
Variable types: 5 continuous, 30 integer (30 binary)

Root relaxation: objective 6.851667e+03, 15 iterations, 0.00 seconds

    Nodes    |    Current Node    |     Objective Bounds      |     Work
 Expl Unexpl |  Obj  Depth IntInf | Incumbent    BestBd   Gap | It/Node Time

     0     0 6851.66667    0    4 24860.0000 6851.66667  72.4%     -    0s
H    0     0                    8322.0000000 6851.66667  17.7%     -    0s
H    0     0                    7796.0000000 6851.66667  12.1%     -    0s
*    0     0               0    7041.0000000 7041.00000  0.00%     -    0s

Cutting planes:
  Learned: 1
  MIR: 2

Explored 1 nodes (18 simplex iterations) in 0.39 seconds
Thread count was 4 (of 4 available processors)

Solution count 4: 7041 7796 8322 24860 

Optimal solution found (tolerance 1.00e-04)
Best objective 7.041000000000e+03, best bound 7.041000000000e+03, gap 0.0000%
Optimize a model with 32 rows, 35 columns and 120 nonzeros
Variable types: 5 continuous, 30 integer (30 binary)
Coefficient statistics:
  Matrix range     [1e+00, 6e+00]
  Objective range  [6e+02, 1e+04]
  Bounds range     [1e+00, 1e+00]
  RHS range        [1e+00, 5e+00]
Found heuristic solution: objective 23125.000000
Presolve time: 0.00s
Presolved: 32 rows, 35 columns, 120 nonzeros
Variable types: 5 continuous, 30 integer (30 binary)

Root relaxation: objective 6.923000e+03, 17 iterations, 0.00 seconds

    Nodes    |    Current Node    |     Objective Bounds      |     Work
 Expl Unexpl |  Obj  Depth IntInf | Incumbent    BestBd   Gap | It/Node Time

     0     0 6923.00000    0    8 23125.0000 6923.00000  70.1%     -    0s
H    0     0                    8873.0000000 6923.00000  22.0%     -    0s
H    0     0                    7940.0000000 6923.00000  12.8%     -    0s
     0     0 7261.00000    0    8 7940.00000 7261.00000  8.55%     -    0s
H    0     0                    7405.0000000 7261.00000  1.94%     -    0s
H    0     0                    7264.0000000 7261.00000  0.04%     -    0s
     0     0 7261.00000    0    8 7264.00000 7261.00000  0.04%     -    0s
     0     0 7261.00000    0    8 7264.00000 7261.00000  0.04%     -    0s
     0     0     cutoff    0      7264.00000 7264.00000  0.00%     -    0s

Cutting planes:
  Learned: 2
  MIR: 5

Explored 1 nodes (36 simplex iterations) in 0.13 seconds
Thread count was 4 (of 4 available processors)

Solution count 5: 7264 7405 7940 ... 23125

Optimal solution found (tolerance 1.00e-04)
Best objective 7.264000000000e+03, best bound 7.264000000000e+03, gap 0.0000%
Optimize a model with 32 rows, 35 columns and 120 nonzeros
Variable types: 5 continuous, 30 integer (30 binary)
Coefficient statistics:
  Matrix range     [1e+00, 6e+00]
  Objective range  [6e+02, 1e+04]
  Bounds range     [1e+00, 1e+00]
  RHS range        [1e+00, 5e+00]
Found heuristic solution: objective 23125.000000
Presolve time: 0.00s
Presolved: 32 rows, 35 columns, 120 nonzeros
Variable types: 5 continuous, 30 integer (30 binary)

Root relaxation: objective 6.923000e+03, 17 iterations, 0.00 seconds

    Nodes    |    Current Node    |     Objective Bounds      |     Work
 Expl Unexpl |  Obj  Depth IntInf | Incumbent    BestBd   Gap | It/Node Time

     0     0 6923.00000    0    8 23125.0000 6923.00000  70.1%     -    0s
H    0     0                    8873.0000000 6923.00000  22.0%     -    0s
H    0     0                    7940.0000000 6923.00000  12.8%     -    0s
     0     0 7261.00000    0    8 7940.00000 7261.00000  8.55%     -    0s
H    0     0                    7405.0000000 7261.00000  1.94%     -    0s
H    0     0                    7264.0000000 7261.00000  0.04%     -    0s
     0     0 7261.00000    0    8 7264.00000 7261.00000  0.04%     -    0s
     0     0 7261.00000    0    8 7264.00000 7261.00000  0.04%     -    0s
     0     0     cutoff    0      7264.00000 7264.00000  0.00%     -    0s

Cutting planes:
  Learned: 2
  MIR: 5

Explored 1 nodes (36 simplex iterations) in 0.25 seconds
Thread count was 4 (of 4 available processors)

Solution count 5: 7264 7405 7940 ... 23125

Optimal solution found (tolerance 1.00e-04)
Best objective 7.264000000000e+03, best bound 7.264000000000e+03, gap 0.0000%
Optimize a model with 32 rows, 35 columns and 120 nonzeros
Variable types: 5 continuous, 30 integer (30 binary)
Coefficient statistics:
  Matrix range     [1e+00, 6e+00]
  Objective range  [6e+02, 1e+04]
  Bounds range     [1e+00, 1e+00]
  RHS range        [1e+00, 5e+00]
Found heuristic solution: objective 23125.000000
Presolve time: 0.00s
Presolved: 32 rows, 35 columns, 120 nonzeros
Variable types: 5 continuous, 30 integer (30 binary)

Root relaxation: objective 6.923000e+03, 17 iterations, 0.00 seconds

    Nodes    |    Current Node    |     Objective Bounds      |     Work
 Expl Unexpl |  Obj  Depth IntInf | Incumbent    BestBd   Gap | It/Node Time

     0     0 6923.00000    0    8 23125.0000 6923.00000  70.1%     -    0s
H    0     0                    8873.0000000 6923.00000  22.0%     -    0s
H    0     0                    7940.0000000 6923.00000  12.8%     -    0s
     0     0 7261.00000    0    8 7940.00000 7261.00000  8.55%     -    0s
H    0     0                    7405.0000000 7261.00000  1.94%     -    0s
H    0     0                    7264.0000000 7261.00000  0.04%     -    0s
     0     0 7261.00000    0    8 7264.00000 7261.00000  0.04%     -    0s
     0     0 7261.00000    0    8 7264.00000 7261.00000  0.04%     -    0s
     0     0     cutoff    0      7264.00000 7264.00000  0.00%     -    0s

Cutting planes:
  Learned: 2
  MIR: 5

Explored 1 nodes (36 simplex iterations) in 0.10 seconds
Thread count was 4 (of 4 available processors)

Solution count 5: 7264 7405 7940 ... 23125

Optimal solution found (tolerance 1.00e-04)
Best objective 7.264000000000e+03, best bound 7.264000000000e+03, gap 0.0000%

Gurobi 8.1.1 (win64, Python) logging started 11/07/19 01:33:55

Academic license - for non-commercial use only
Optimize a model with 2 rows, 2 columns and 4 nonzeros
Variable types: 0 continuous, 2 integer (0 binary)
Coefficient statistics:
  Matrix range     [1e+00, 9e+00]
  Objective range  [5e+00, 8e+00]
  Bounds range     [0e+00, 0e+00]
  RHS range        [6e+00, 5e+01]
Found heuristic solution: objective 40.0000000
Presolve time: 0.00s
Presolved: 2 rows, 2 columns, 4 nonzeros
Variable types: 0 continuous, 2 integer (0 binary)

Root relaxation: objective 4.125000e+01, 2 iterations, 0.00 seconds

    Nodes    |    Current Node    |     Objective Bounds      |     Work
 Expl Unexpl |  Obj  Depth IntInf | Incumbent    BestBd   Gap | It/Node Time

     0     0 infeasible    0        40.00000   40.00000  0.00%     -    0s

Explored 0 nodes (2 simplex iterations) in 0.15 seconds
Thread count was 4 (of 4 available processors)

Solution count 1: 40 

Optimal solution found (tolerance 1.00e-04)
Best objective 4.000000000000e+01, best bound 4.000000000000e+01, gap 0.0000%

Gurobi 8.1.1 (win64, Python) logging started 11/07/19 22:25:26

Academic license - for non-commercial use only

Gurobi 8.1.1 (win64, Python) logging started 11/28/19 21:18:25

Academic license - for non-commercial use only

Gurobi 8.1.1 (win64, Python) logging started 11/28/19 21:55:57

Academic license - for non-commercial use only

Gurobi 8.1.1 (win64, Python) logging started 11/28/19 21:56:50

Academic license - for non-commercial use only

Gurobi 8.1.1 (win64, Python) logging started 11/28/19 22:08:36

Academic license - for non-commercial use only

Gurobi 8.1.1 (win64, Python) logging started 11/28/19 22:09:46

Academic license - for non-commercial use only

Gurobi 8.1.1 (win64, Python) logging started 01/01/20 23:48:08

Academic license - for non-commercial use only

Gurobi 8.1.1 (win64, Python) logging started 01/01/20 23:59:54

Academic license - for non-commercial use only
Optimize a model with 10 rows, 9 columns and 37 nonzeros
Variable types: 0 continuous, 9 integer (0 binary)
Coefficient statistics:
  Matrix range     [1e+00, 1e+00]
  Objective range  [4e+01, 1e+02]
  Bounds range     [3e+00, 3e+00]
  RHS range        [3e+00, 8e+00]
Presolve removed 7 rows and 5 columns
Presolve time: 0.05s
Presolved: 3 rows, 4 columns, 8 nonzeros
Variable types: 0 continuous, 4 integer (0 binary)
Found heuristic solution: objective 880.0000000

Root relaxation: objective 7.700000e+02, 3 iterations, 0.01 seconds

    Nodes    |    Current Node    |     Objective Bounds      |     Work
 Expl Unexpl |  Obj  Depth IntInf | Incumbent    BestBd   Gap | It/Node Time

     0     0  770.00000    0    3  880.00000  770.00000  12.5%     -    0s
H    0     0                     820.0000000  770.00000  6.10%     -    0s

Explored 1 nodes (3 simplex iterations) in 0.19 seconds
Thread count was 4 (of 4 available processors)

Solution count 2: 820 880 

Optimal solution found (tolerance 1.00e-04)
Best objective 8.200000000000e+02, best bound 8.200000000000e+02, gap 0.0000%
Optimize a model with 10 rows, 9 columns and 37 nonzeros
Variable types: 0 continuous, 9 integer (0 binary)
Coefficient statistics:
  Matrix range     [1e+00, 1e+00]
  Objective range  [4e+01, 1e+02]
  Bounds range     [3e+00, 3e+00]
  RHS range        [3e+00, 8e+00]
Presolve removed 7 rows and 5 columns
Presolve time: 0.00s
Presolved: 3 rows, 4 columns, 8 nonzeros
Variable types: 0 continuous, 4 integer (0 binary)
Found heuristic solution: objective 880.0000000

Root relaxation: objective 7.700000e+02, 3 iterations, 0.00 seconds

    Nodes    |    Current Node    |     Objective Bounds      |     Work
 Expl Unexpl |  Obj  Depth IntInf | Incumbent    BestBd   Gap | It/Node Time

     0     0  770.00000    0    3  880.00000  770.00000  12.5%     -    0s
H    0     0                     820.0000000  770.00000  6.10%     -    0s

Explored 1 nodes (3 simplex iterations) in 0.04 seconds
Thread count was 4 (of 4 available processors)

Solution count 2: 820 880 

Optimal solution found (tolerance 1.00e-04)
Best objective 8.200000000000e+02, best bound 8.200000000000e+02, gap 0.0000%

Gurobi 8.1.1 (win64, Python) logging started 01/02/20 01:13:09

Academic license - for non-commercial use only
Optimize a model with 3 rows, 12 columns and 12 nonzeros
Variable types: 0 continuous, 12 integer (12 binary)
Coefficient statistics:
  Matrix range     [1e+00, 1e+00]
  Objective range  [2e+00, 1e+01]
  Bounds range     [1e+00, 1e+00]
  RHS range        [1e+00, 1e+00]
Found heuristic solution: objective 20.0000000
Presolve removed 3 rows and 12 columns
Presolve time: 0.00s
Presolve: All rows and columns removed

Explored 0 nodes (0 simplex iterations) in 0.03 seconds
Thread count was 1 (of 4 available processors)

Solution count 2: 27 20 

Optimal solution found (tolerance 1.00e-04)
Best objective 2.700000000000e+01, best bound 2.700000000000e+01, gap 0.0000%
Optimize a model with 6 rows, 12 columns and 21 nonzeros
Variable types: 0 continuous, 12 integer (12 binary)
Coefficient statistics:
  Matrix range     [1e+00, 1e+00]
  Objective range  [2e+00, 1e+01]
  Bounds range     [1e+00, 1e+00]
  RHS range        [1e+00, 1e+00]
Found heuristic solution: objective 11.0000000
Presolve removed 0 rows and 1 columns
Presolve time: 0.08s
Presolved: 6 rows, 11 columns, 19 nonzeros
Found heuristic solution: objective 19.0000000
Variable types: 0 continuous, 11 integer (11 binary)

Root relaxation: objective 2.700000e+01, 4 iterations, 0.00 seconds

    Nodes    |    Current Node    |     Objective Bounds      |     Work
 Expl Unexpl |  Obj  Depth IntInf | Incumbent    BestBd   Gap | It/Node Time

*    0     0               0      27.0000000   27.00000  0.00%     -    0s

Explored 0 nodes (4 simplex iterations) in 0.14 seconds
Thread count was 4 (of 4 available processors)

Solution count 3: 27 19 12 

Optimal solution found (tolerance 1.00e-04)
Best objective 2.700000000000e+01, best bound 2.700000000000e+01, gap 0.0000%
Optimize a model with 7 rows, 12 columns and 24 nonzeros
Variable types: 0 continuous, 12 integer (12 binary)
Coefficient statistics:
  Matrix range     [1e+00, 1e+00]
  Objective range  [2e+00, 1e+01]
  Bounds range     [1e+00, 1e+00]
  RHS range        [1e+00, 1e+00]
Found heuristic solution: objective 11.0000000
Presolve time: 0.00s
Presolved: 7 rows, 12 columns, 24 nonzeros
Variable types: 0 continuous, 12 integer (12 binary)

Root relaxation: objective 2.700000e+01, 0 iterations, 0.00 seconds

    Nodes    |    Current Node    |     Objective Bounds      |     Work
 Expl Unexpl |  Obj  Depth IntInf | Incumbent    BestBd   Gap | It/Node Time

*    0     0               0      27.0000000   27.00000  0.00%     -    0s

Explored 0 nodes (0 simplex iterations) in 0.04 seconds
Thread count was 4 (of 4 available processors)

Solution count 2: 27 11 

Optimal solution found (tolerance 1.00e-04)
Best objective 2.700000000000e+01, best bound 2.700000000000e+01, gap 0.0000%
Optimize a model with 7 rows, 12 columns and 24 nonzeros
Variable types: 0 continuous, 12 integer (12 binary)
Coefficient statistics:
  Matrix range     [1e+00, 1e+00]
  Objective range  [2e+00, 1e+01]
  Bounds range     [1e+00, 1e+00]
  RHS range        [1e+00, 1e+00]
Found heuristic solution: objective 11.0000000
Presolve time: 0.00s
Presolved: 7 rows, 12 columns, 24 nonzeros
Variable types: 0 continuous, 12 integer (12 binary)

Root relaxation: objective 2.700000e+01, 0 iterations, 0.00 seconds

    Nodes    |    Current Node    |     Objective Bounds      |     Work
 Expl Unexpl |  Obj  Depth IntInf | Incumbent    BestBd   Gap | It/Node Time

*    0     0               0      27.0000000   27.00000  0.00%     -    0s

Explored 0 nodes (0 simplex iterations) in 0.04 seconds
Thread count was 4 (of 4 available processors)

Solution count 2: 27 11 

Optimal solution found (tolerance 1.00e-04)
Best objective 2.700000000000e+01, best bound 2.700000000000e+01, gap 0.0000%
Optimize a model with 7 rows, 12 columns and 24 nonzeros
Variable types: 0 continuous, 12 integer (12 binary)
Coefficient statistics:
  Matrix range     [1e+00, 1e+00]
  Objective range  [2e+00, 1e+01]
  Bounds range     [1e+00, 1e+00]
  RHS range        [1e+00, 1e+00]
Found heuristic solution: objective 11.0000000
Presolve time: 0.00s
Presolved: 7 rows, 12 columns, 24 nonzeros
Variable types: 0 continuous, 12 integer (12 binary)

Root relaxation: objective 2.700000e+01, 0 iterations, 0.00 seconds

    Nodes    |    Current Node    |     Objective Bounds      |     Work
 Expl Unexpl |  Obj  Depth IntInf | Incumbent    BestBd   Gap | It/Node Time

*    0     0               0      27.0000000   27.00000  0.00%     -    0s

Explored 0 nodes (0 simplex iterations) in 0.04 seconds
Thread count was 4 (of 4 available processors)

Solution count 2: 27 11 

Optimal solution found (tolerance 1.00e-04)
Best objective 2.700000000000e+01, best bound 2.700000000000e+01, gap 0.0000%
Optimize a model with 7 rows, 12 columns and 24 nonzeros
Coefficient statistics:
  Matrix range     [1e+00, 1e+00]
  Objective range  [2e+00, 1e+01]
  Bounds range     [1e+00, 1e+00]
  RHS range        [1e+00, 1e+00]
Presolve time: 0.11s
Presolved: 7 rows, 12 columns, 24 nonzeros

Iteration    Objective       Primal Inf.    Dual Inf.      Time
       0    2.7000000e+01   0.000000e+00   0.000000e+00      0s

Solved in 0 iterations and 0.12 seconds
Optimal objective  2.700000000e+01
Optimize a model with 7 rows, 12 columns and 24 nonzeros
Coefficient statistics:
  Matrix range     [1e+00, 1e+00]
  Objective range  [2e+00, 1e+01]
  Bounds range     [2e+00, 2e+00]
  RHS range        [1e+00, 1e+00]
Presolve time: 0.01s
Presolved: 7 rows, 12 columns, 24 nonzeros

Iteration    Objective       Primal Inf.    Dual Inf.      Time
       0    2.7000000e+01   0.000000e+00   0.000000e+00      0s

Solved in 0 iterations and 0.02 seconds
Optimal objective  2.700000000e+01
Optimize a model with 7 rows, 12 columns and 24 nonzeros
Coefficient statistics:
  Matrix range     [1e+00, 1e+00]
  Objective range  [2e+00, 1e+01]
  Bounds range     [5e+00, 5e+00]
  RHS range        [1e+00, 1e+00]
Presolve time: 0.09s
Presolved: 7 rows, 12 columns, 24 nonzeros

Iteration    Objective       Primal Inf.    Dual Inf.      Time
       0    2.7000000e+01   0.000000e+00   0.000000e+00      0s

Solved in 0 iterations and 0.17 seconds
Optimal objective  2.700000000e+01
Optimize a model with 7 rows, 12 columns and 24 nonzeros
Coefficient statistics:
  Matrix range     [1e+00, 1e+00]
  Objective range  [2e+00, 1e+01]
  Bounds range     [5e+00, 5e+00]
  RHS range        [1e+00, 1e+00]
Presolve time: 0.01s
Presolved: 7 rows, 12 columns, 24 nonzeros

Iteration    Objective       Primal Inf.    Dual Inf.      Time
       0    2.7000000e+01   0.000000e+00   0.000000e+00      0s

Solved in 0 iterations and 0.02 seconds
Optimal objective  2.700000000e+01
Optimize a model with 7 rows, 12 columns and 24 nonzeros
Coefficient statistics:
  Matrix range     [1e+00, 1e+00]
  Objective range  [2e+00, 1e+01]
  Bounds range     [1e+00, 1e+00]
  RHS range        [1e+00, 1e+00]
Presolve time: 0.03s
Presolved: 7 rows, 12 columns, 24 nonzeros

Iteration    Objective       Primal Inf.    Dual Inf.      Time
       0    2.7000000e+01   0.000000e+00   0.000000e+00      0s

Solved in 0 iterations and 0.04 seconds
Optimal objective  2.700000000e+01
Optimize a model with 7 rows, 12 columns and 24 nonzeros
Variable types: 0 continuous, 12 integer (0 binary)
Coefficient statistics:
  Matrix range     [1e+00, 1e+00]
  Objective range  [5e+00, 2e+01]
  Bounds range     [0e+00, 0e+00]
  RHS range        [2e+01, 5e+01]
Found heuristic solution: objective 1355.0000000
Presolve time: 0.00s
Presolved: 7 rows, 12 columns, 24 nonzeros
Variable types: 0 continuous, 12 integer (0 binary)

Root relaxation: objective 1.020000e+03, 7 iterations, 0.00 seconds

    Nodes    |    Current Node    |     Objective Bounds      |     Work
 Expl Unexpl |  Obj  Depth IntInf | Incumbent    BestBd   Gap | It/Node Time

*    0     0               0    1020.0000000 1020.00000  0.00%     -    0s

Explored 0 nodes (7 simplex iterations) in 0.04 seconds
Thread count was 4 (of 4 available processors)

Solution count 2: 1020 1355 

Optimal solution found (tolerance 1.00e-04)
Best objective 1.020000000000e+03, best bound 1.020000000000e+03, gap 0.0000%
Optimize a model with 7 rows, 12 columns and 24 nonzeros
Variable types: 0 continuous, 12 integer (12 binary)
Coefficient statistics:
  Matrix range     [1e+00, 1e+00]
  Objective range  [5e+00, 2e+01]
  Bounds range     [1e+00, 1e+00]
  RHS range        [2e+01, 5e+01]
Presolve removed 3 rows and 0 columns
Presolve time: 0.00s

Explored 0 nodes (0 simplex iterations) in 0.02 seconds
Thread count was 1 (of 4 available processors)

Solution count 0

Model is infeasible
Best objective -, best bound -, gap -
Optimize a model with 7 rows, 12 columns and 24 nonzeros
Coefficient statistics:
  Matrix range     [1e+00, 1e+00]
  Objective range  [5e+00, 2e+01]
  Bounds range     [0e+00, 0e+00]
  RHS range        [2e+01, 5e+01]
Presolve time: 0.01s
Presolved: 7 rows, 12 columns, 24 nonzeros

Iteration    Objective       Primal Inf.    Dual Inf.      Time
       0    0.0000000e+00   1.250000e+02   0.000000e+00      0s
       7    1.0200000e+03   0.000000e+00   0.000000e+00      0s

Solved in 7 iterations and 0.03 seconds
Optimal objective  1.020000000e+03
Optimize a model with 7 rows, 12 columns and 24 nonzeros
Variable types: 0 continuous, 12 integer (0 binary)
Coefficient statistics:
  Matrix range     [1e+00, 1e+00]
  Objective range  [5e+00, 2e+01]
  Bounds range     [0e+00, 0e+00]
  RHS range        [2e+01, 5e+01]
Found heuristic solution: objective 1355.0000000
Presolve time: 0.00s
Presolved: 7 rows, 12 columns, 24 nonzeros
Variable types: 0 continuous, 12 integer (0 binary)

Root relaxation: objective 1.020000e+03, 7 iterations, 0.00 seconds

    Nodes    |    Current Node    |     Objective Bounds      |     Work
 Expl Unexpl |  Obj  Depth IntInf | Incumbent    BestBd   Gap | It/Node Time

*    0     0               0    1020.0000000 1020.00000  0.00%     -    0s

Explored 0 nodes (7 simplex iterations) in 0.04 seconds
Thread count was 4 (of 4 available processors)

Solution count 2: 1020 1355 

Optimal solution found (tolerance 1.00e-04)
Best objective 1.020000000000e+03, best bound 1.020000000000e+03, gap 0.0000%

Gurobi 8.1.1 (win64, Python) logging started 01/02/20 11:32:04

Academic license - for non-commercial use only
Optimize a model with 7 rows, 12 columns and 24 nonzeros
Variable types: 0 continuous, 12 integer (0 binary)
Coefficient statistics:
  Matrix range     [1e+00, 1e+00]
  Objective range  [5e+00, 2e+01]
  Bounds range     [0e+00, 0e+00]
  RHS range        [2e+01, 5e+01]
Found heuristic solution: objective 1355.0000000
Presolve time: 0.08s
Presolved: 7 rows, 12 columns, 24 nonzeros
Variable types: 0 continuous, 12 integer (0 binary)

Root relaxation: objective 1.020000e+03, 7 iterations, 0.04 seconds

    Nodes    |    Current Node    |     Objective Bounds      |     Work
 Expl Unexpl |  Obj  Depth IntInf | Incumbent    BestBd   Gap | It/Node Time

*    0     0               0    1020.0000000 1020.00000  0.00%     -    0s

Explored 0 nodes (7 simplex iterations) in 0.30 seconds
Thread count was 4 (of 4 available processors)

Solution count 2: 1020 1355 

Optimal solution found (tolerance 1.00e-04)
Best objective 1.020000000000e+03, best bound 1.020000000000e+03, gap 0.0000%
